p cnf 345 1171
c p weight 138 -1 0
c p weight -138 1 0
c p weight 140 6.12323399573676603586882014729198302312846062338790031898128063403419218957424163818359375E-17 0
c p weight -140 1 0
c p weight 141 1 0
c p weight -141 1 0
c p weight 142 -1 0
c p weight -142 1 0
c p weight 144 -1 0
c p weight -144 1 0
c p weight 147 -1 0
c p weight -147 1 0
c p weight 150 -1 0
c p weight -150 1 0
c p weight 153 -1 0
c p weight -153 1 0
c p weight 156 -1 0
c p weight -156 1 0
c p weight 159 -1 0
c p weight -159 1 0
c p weight 162 -1 0
c p weight -162 1 0
c p weight 165 -1 0
c p weight -165 1 0
c p weight 168 -1 0
c p weight -168 1 0
c p weight 171 -1 0
c p weight -171 1 0
c p weight 174 -1 0
c p weight -174 1 0
c p weight 177 -1 0
c p weight -177 1 0
c p weight 180 -1 0
c p weight -180 1 0
c p weight 183 -1 0
c p weight -183 1 0
c p weight 186 -1 0
c p weight -186 1 0
c p weight 189 -1 0
c p weight -189 1 0
c p weight 192 -1 0
c p weight -192 1 0
c p weight 195 -1 0
c p weight -195 1 0
c p weight 198 -1 0
c p weight -198 1 0
c p weight 201 -1 0
c p weight -201 1 0
c p weight 204 -1 0
c p weight -204 1 0
c p weight 207 -1 0
c p weight -207 1 0
c p weight 210 -1 0
c p weight -210 1 0
c p weight 213 -1 0
c p weight -213 1 0
c p weight 216 -1 0
c p weight -216 1 0
c p weight 219 -1 0
c p weight -219 1 0
c p weight 222 -1 0
c p weight -222 1 0
c p weight 225 -1 0
c p weight -225 1 0
c p weight 228 -1 0
c p weight -228 1 0
c p weight 231 -1 0
c p weight -231 1 0
c p weight 234 -1 0
c p weight -234 1 0
c p weight 237 -1 0
c p weight -237 1 0
c p weight 240 -1 0
c p weight -240 1 0
c p weight 243 -1 0
c p weight -243 1 0
c p weight 246 -1 0
c p weight -246 1 0
c p weight 249 -1 0
c p weight -249 1 0
c p weight 252 -1 0
c p weight -252 1 0
c p weight 255 -1 0
c p weight -255 1 0
c p weight 258 -1 0
c p weight -258 1 0
c p weight 261 -1 0
c p weight -261 1 0
c p weight 264 -1 0
c p weight -264 1 0
c p weight 267 -1 0
c p weight -267 1 0
c p weight 270 -1 0
c p weight -270 1 0
c p weight 273 -1 0
c p weight -273 1 0
c p weight 276 -1 0
c p weight -276 1 0
c p weight 279 -1 0
c p weight -279 1 0
c p weight 282 -1 0
c p weight -282 1 0
c p weight 285 -1 0
c p weight -285 1 0
c p weight 288 -1 0
c p weight -288 1 0
c p weight 291 -1 0
c p weight -291 1 0
c p weight 294 -1 0
c p weight -294 1 0
c p weight 297 -1 0
c p weight -297 1 0
c p weight 300 -1 0
c p weight -300 1 0
c p weight 303 -1 0
c p weight -303 1 0
c p weight 306 -1 0
c p weight -306 1 0
c p weight 309 -1 0
c p weight -309 1 0
c p weight 312 -1 0
c p weight -312 1 0
c p weight 315 -1 0
c p weight -315 1 0
c p weight 318 -1 0
c p weight -318 1 0
c p weight 321 -1 0
c p weight -321 1 0
c p weight 324 -1 0
c p weight -324 1 0
c p weight 327 -1 0
c p weight -327 1 0
c p weight 330 -1 0
c p weight -330 1 0
c p weight 333 -1 0
c p weight -333 1 0
c p weight 336 -1 0
c p weight -336 1 0
c p weight 339 -1 0
c p weight -339 1 0
c p weight 342 -1 0
c p weight -342 1 0
c p weight 345 -1 0
c p weight -345 1 0
-135 0
-133 0
-131 0
-129 0
-127 0
-125 0
-123 0
-121 0
-119 0
-117 0
-115 0
-113 0
-111 0
-109 0
-107 0
-105 0
-103 0
-101 0
-99 0
-97 0
-95 0
-93 0
-91 0
-89 0
-87 0
-85 0
-83 0
-81 0
-79 0
-77 0
-75 0
-73 0
-71 0
-69 0
-67 0
-65 0
-63 0
-61 0
-59 0
-57 0
-55 0
-53 0
-51 0
-49 0
-47 0
-45 0
-43 0
-41 0
-39 0
-37 0
-35 0
-33 0
-31 0
-29 0
-27 0
-25 0
-23 0
-21 0
-19 0
-17 0
-15 0
-13 0
-11 0
-9 0
-7 0
-5 0
-3 0
-1 0
137 135 -136 0
137 -135 136 0
-137 135 136 0
-137 -135 -136 0
-138 135 0
-138 136 0
138 -135 -136 0
139 -135 137 0
-139 135 137 0
-140 137 0
139 -140 -135 0
-139 -140 135 0
139 140 135 -137 0
-139 140 -135 -137 0
-141 137 0
139 -141 135 0
-139 -141 -135 0
139 141 -135 -137 0
-139 141 135 -137 0
-142 139 0
-142 137 0
-142 -135 0
142 -139 135 -137 0
143 139 -137 0
143 -139 137 0
-143 139 137 0
-143 -139 -137 0
-144 139 0
-144 137 0
144 -139 -137 0
145 139 -133 0
145 -139 133 0
-145 139 133 0
-145 -139 -133 0
146 143 -134 0
146 -143 134 0
-146 143 134 0
-146 -143 -134 0
-147 139 0
-147 134 0
-147 133 -143 0
-147 -133 143 0
147 -139 133 143 -134 0
147 -139 -133 -143 -134 0
148 145 -131 0
148 -145 131 0
-148 145 131 0
-148 -145 -131 0
149 134 -132 0
149 -134 132 0
-149 134 132 0
-149 -134 -132 0
-150 145 0
-150 132 0
-150 131 -134 0
-150 -131 134 0
150 -145 131 134 -132 0
150 -145 -131 -134 -132 0
151 148 -129 0
151 -148 129 0
-151 148 129 0
-151 -148 -129 0
152 132 -130 0
152 -132 130 0
-152 132 130 0
-152 -132 -130 0
-153 148 0
-153 130 0
-153 129 -132 0
-153 -129 132 0
153 -148 129 132 -130 0
153 -148 -129 -132 -130 0
154 151 -127 0
154 -151 127 0
-154 151 127 0
-154 -151 -127 0
155 130 -128 0
155 -130 128 0
-155 130 128 0
-155 -130 -128 0
-156 151 0
-156 128 0
-156 127 -130 0
-156 -127 130 0
156 -151 127 130 -128 0
156 -151 -127 -130 -128 0
157 154 -125 0
157 -154 125 0
-157 154 125 0
-157 -154 -125 0
158 128 -126 0
158 -128 126 0
-158 128 126 0
-158 -128 -126 0
-159 154 0
-159 126 0
-159 125 -128 0
-159 -125 128 0
159 -154 125 128 -126 0
159 -154 -125 -128 -126 0
160 157 -123 0
160 -157 123 0
-160 157 123 0
-160 -157 -123 0
161 126 -124 0
161 -126 124 0
-161 126 124 0
-161 -126 -124 0
-162 157 0
-162 124 0
-162 123 -126 0
-162 -123 126 0
162 -157 123 126 -124 0
162 -157 -123 -126 -124 0
163 160 -121 0
163 -160 121 0
-163 160 121 0
-163 -160 -121 0
164 124 -122 0
164 -124 122 0
-164 124 122 0
-164 -124 -122 0
-165 160 0
-165 122 0
-165 121 -124 0
-165 -121 124 0
165 -160 121 124 -122 0
165 -160 -121 -124 -122 0
166 163 -119 0
166 -163 119 0
-166 163 119 0
-166 -163 -119 0
167 122 -120 0
167 -122 120 0
-167 122 120 0
-167 -122 -120 0
-168 163 0
-168 120 0
-168 119 -122 0
-168 -119 122 0
168 -163 119 122 -120 0
168 -163 -119 -122 -120 0
169 166 -117 0
169 -166 117 0
-169 166 117 0
-169 -166 -117 0
170 120 -118 0
170 -120 118 0
-170 120 118 0
-170 -120 -118 0
-171 166 0
-171 118 0
-171 117 -120 0
-171 -117 120 0
171 -166 117 120 -118 0
171 -166 -117 -120 -118 0
172 169 -115 0
172 -169 115 0
-172 169 115 0
-172 -169 -115 0
173 118 -116 0
173 -118 116 0
-173 118 116 0
-173 -118 -116 0
-174 169 0
-174 116 0
-174 115 -118 0
-174 -115 118 0
174 -169 115 118 -116 0
174 -169 -115 -118 -116 0
175 172 -113 0
175 -172 113 0
-175 172 113 0
-175 -172 -113 0
176 116 -114 0
176 -116 114 0
-176 116 114 0
-176 -116 -114 0
-177 172 0
-177 114 0
-177 113 -116 0
-177 -113 116 0
177 -172 113 116 -114 0
177 -172 -113 -116 -114 0
178 175 -111 0
178 -175 111 0
-178 175 111 0
-178 -175 -111 0
179 114 -112 0
179 -114 112 0
-179 114 112 0
-179 -114 -112 0
-180 175 0
-180 112 0
-180 111 -114 0
-180 -111 114 0
180 -175 111 114 -112 0
180 -175 -111 -114 -112 0
181 178 -109 0
181 -178 109 0
-181 178 109 0
-181 -178 -109 0
182 112 -110 0
182 -112 110 0
-182 112 110 0
-182 -112 -110 0
-183 178 0
-183 110 0
-183 109 -112 0
-183 -109 112 0
183 -178 109 112 -110 0
183 -178 -109 -112 -110 0
184 181 -107 0
184 -181 107 0
-184 181 107 0
-184 -181 -107 0
185 110 -108 0
185 -110 108 0
-185 110 108 0
-185 -110 -108 0
-186 181 0
-186 108 0
-186 107 -110 0
-186 -107 110 0
186 -181 107 110 -108 0
186 -181 -107 -110 -108 0
187 184 -105 0
187 -184 105 0
-187 184 105 0
-187 -184 -105 0
188 108 -106 0
188 -108 106 0
-188 108 106 0
-188 -108 -106 0
-189 184 0
-189 106 0
-189 105 -108 0
-189 -105 108 0
189 -184 105 108 -106 0
189 -184 -105 -108 -106 0
190 187 -103 0
190 -187 103 0
-190 187 103 0
-190 -187 -103 0
191 106 -104 0
191 -106 104 0
-191 106 104 0
-191 -106 -104 0
-192 187 0
-192 104 0
-192 103 -106 0
-192 -103 106 0
192 -187 103 106 -104 0
192 -187 -103 -106 -104 0
193 190 -101 0
193 -190 101 0
-193 190 101 0
-193 -190 -101 0
194 104 -102 0
194 -104 102 0
-194 104 102 0
-194 -104 -102 0
-195 190 0
-195 102 0
-195 101 -104 0
-195 -101 104 0
195 -190 101 104 -102 0
195 -190 -101 -104 -102 0
196 193 -99 0
196 -193 99 0
-196 193 99 0
-196 -193 -99 0
197 102 -100 0
197 -102 100 0
-197 102 100 0
-197 -102 -100 0
-198 193 0
-198 100 0
-198 99 -102 0
-198 -99 102 0
198 -193 99 102 -100 0
198 -193 -99 -102 -100 0
199 196 -97 0
199 -196 97 0
-199 196 97 0
-199 -196 -97 0
200 100 -98 0
200 -100 98 0
-200 100 98 0
-200 -100 -98 0
-201 196 0
-201 98 0
-201 97 -100 0
-201 -97 100 0
201 -196 97 100 -98 0
201 -196 -97 -100 -98 0
202 199 -95 0
202 -199 95 0
-202 199 95 0
-202 -199 -95 0
203 98 -96 0
203 -98 96 0
-203 98 96 0
-203 -98 -96 0
-204 199 0
-204 96 0
-204 95 -98 0
-204 -95 98 0
204 -199 95 98 -96 0
204 -199 -95 -98 -96 0
205 202 -93 0
205 -202 93 0
-205 202 93 0
-205 -202 -93 0
206 96 -94 0
206 -96 94 0
-206 96 94 0
-206 -96 -94 0
-207 202 0
-207 94 0
-207 93 -96 0
-207 -93 96 0
207 -202 93 96 -94 0
207 -202 -93 -96 -94 0
208 205 -91 0
208 -205 91 0
-208 205 91 0
-208 -205 -91 0
209 94 -92 0
209 -94 92 0
-209 94 92 0
-209 -94 -92 0
-210 205 0
-210 92 0
-210 91 -94 0
-210 -91 94 0
210 -205 91 94 -92 0
210 -205 -91 -94 -92 0
211 208 -89 0
211 -208 89 0
-211 208 89 0
-211 -208 -89 0
212 92 -90 0
212 -92 90 0
-212 92 90 0
-212 -92 -90 0
-213 208 0
-213 90 0
-213 89 -92 0
-213 -89 92 0
213 -208 89 92 -90 0
213 -208 -89 -92 -90 0
214 211 -87 0
214 -211 87 0
-214 211 87 0
-214 -211 -87 0
215 90 -88 0
215 -90 88 0
-215 90 88 0
-215 -90 -88 0
-216 211 0
-216 88 0
-216 87 -90 0
-216 -87 90 0
216 -211 87 90 -88 0
216 -211 -87 -90 -88 0
217 214 -85 0
217 -214 85 0
-217 214 85 0
-217 -214 -85 0
218 88 -86 0
218 -88 86 0
-218 88 86 0
-218 -88 -86 0
-219 214 0
-219 86 0
-219 85 -88 0
-219 -85 88 0
219 -214 85 88 -86 0
219 -214 -85 -88 -86 0
220 217 -83 0
220 -217 83 0
-220 217 83 0
-220 -217 -83 0
221 86 -84 0
221 -86 84 0
-221 86 84 0
-221 -86 -84 0
-222 217 0
-222 84 0
-222 83 -86 0
-222 -83 86 0
222 -217 83 86 -84 0
222 -217 -83 -86 -84 0
223 220 -81 0
223 -220 81 0
-223 220 81 0
-223 -220 -81 0
224 84 -82 0
224 -84 82 0
-224 84 82 0
-224 -84 -82 0
-225 220 0
-225 82 0
-225 81 -84 0
-225 -81 84 0
225 -220 81 84 -82 0
225 -220 -81 -84 -82 0
226 223 -79 0
226 -223 79 0
-226 223 79 0
-226 -223 -79 0
227 82 -80 0
227 -82 80 0
-227 82 80 0
-227 -82 -80 0
-228 223 0
-228 80 0
-228 79 -82 0
-228 -79 82 0
228 -223 79 82 -80 0
228 -223 -79 -82 -80 0
229 226 -77 0
229 -226 77 0
-229 226 77 0
-229 -226 -77 0
230 80 -78 0
230 -80 78 0
-230 80 78 0
-230 -80 -78 0
-231 226 0
-231 78 0
-231 77 -80 0
-231 -77 80 0
231 -226 77 80 -78 0
231 -226 -77 -80 -78 0
232 229 -75 0
232 -229 75 0
-232 229 75 0
-232 -229 -75 0
233 78 -76 0
233 -78 76 0
-233 78 76 0
-233 -78 -76 0
-234 229 0
-234 76 0
-234 75 -78 0
-234 -75 78 0
234 -229 75 78 -76 0
234 -229 -75 -78 -76 0
235 232 -73 0
235 -232 73 0
-235 232 73 0
-235 -232 -73 0
236 76 -74 0
236 -76 74 0
-236 76 74 0
-236 -76 -74 0
-237 232 0
-237 74 0
-237 73 -76 0
-237 -73 76 0
237 -232 73 76 -74 0
237 -232 -73 -76 -74 0
238 235 -71 0
238 -235 71 0
-238 235 71 0
-238 -235 -71 0
239 74 -72 0
239 -74 72 0
-239 74 72 0
-239 -74 -72 0
-240 235 0
-240 72 0
-240 71 -74 0
-240 -71 74 0
240 -235 71 74 -72 0
240 -235 -71 -74 -72 0
241 238 -69 0
241 -238 69 0
-241 238 69 0
-241 -238 -69 0
242 72 -70 0
242 -72 70 0
-242 72 70 0
-242 -72 -70 0
-243 238 0
-243 70 0
-243 69 -72 0
-243 -69 72 0
243 -238 69 72 -70 0
243 -238 -69 -72 -70 0
244 241 -67 0
244 -241 67 0
-244 241 67 0
-244 -241 -67 0
245 70 -68 0
245 -70 68 0
-245 70 68 0
-245 -70 -68 0
-246 241 0
-246 68 0
-246 67 -70 0
-246 -67 70 0
246 -241 67 70 -68 0
246 -241 -67 -70 -68 0
247 244 -65 0
247 -244 65 0
-247 244 65 0
-247 -244 -65 0
248 68 -66 0
248 -68 66 0
-248 68 66 0
-248 -68 -66 0
-249 244 0
-249 66 0
-249 65 -68 0
-249 -65 68 0
249 -244 65 68 -66 0
249 -244 -65 -68 -66 0
250 247 -63 0
250 -247 63 0
-250 247 63 0
-250 -247 -63 0
251 66 -64 0
251 -66 64 0
-251 66 64 0
-251 -66 -64 0
-252 247 0
-252 64 0
-252 63 -66 0
-252 -63 66 0
252 -247 63 66 -64 0
252 -247 -63 -66 -64 0
253 250 -61 0
253 -250 61 0
-253 250 61 0
-253 -250 -61 0
254 64 -62 0
254 -64 62 0
-254 64 62 0
-254 -64 -62 0
-255 250 0
-255 62 0
-255 61 -64 0
-255 -61 64 0
255 -250 61 64 -62 0
255 -250 -61 -64 -62 0
256 253 -59 0
256 -253 59 0
-256 253 59 0
-256 -253 -59 0
257 62 -60 0
257 -62 60 0
-257 62 60 0
-257 -62 -60 0
-258 253 0
-258 60 0
-258 59 -62 0
-258 -59 62 0
258 -253 59 62 -60 0
258 -253 -59 -62 -60 0
259 256 -57 0
259 -256 57 0
-259 256 57 0
-259 -256 -57 0
260 60 -58 0
260 -60 58 0
-260 60 58 0
-260 -60 -58 0
-261 256 0
-261 58 0
-261 57 -60 0
-261 -57 60 0
261 -256 57 60 -58 0
261 -256 -57 -60 -58 0
262 259 -55 0
262 -259 55 0
-262 259 55 0
-262 -259 -55 0
263 58 -56 0
263 -58 56 0
-263 58 56 0
-263 -58 -56 0
-264 259 0
-264 56 0
-264 55 -58 0
-264 -55 58 0
264 -259 55 58 -56 0
264 -259 -55 -58 -56 0
265 262 -53 0
265 -262 53 0
-265 262 53 0
-265 -262 -53 0
266 56 -54 0
266 -56 54 0
-266 56 54 0
-266 -56 -54 0
-267 262 0
-267 54 0
-267 53 -56 0
-267 -53 56 0
267 -262 53 56 -54 0
267 -262 -53 -56 -54 0
268 265 -51 0
268 -265 51 0
-268 265 51 0
-268 -265 -51 0
269 54 -52 0
269 -54 52 0
-269 54 52 0
-269 -54 -52 0
-270 265 0
-270 52 0
-270 51 -54 0
-270 -51 54 0
270 -265 51 54 -52 0
270 -265 -51 -54 -52 0
271 268 -49 0
271 -268 49 0
-271 268 49 0
-271 -268 -49 0
272 52 -50 0
272 -52 50 0
-272 52 50 0
-272 -52 -50 0
-273 268 0
-273 50 0
-273 49 -52 0
-273 -49 52 0
273 -268 49 52 -50 0
273 -268 -49 -52 -50 0
274 271 -47 0
274 -271 47 0
-274 271 47 0
-274 -271 -47 0
275 50 -48 0
275 -50 48 0
-275 50 48 0
-275 -50 -48 0
-276 271 0
-276 48 0
-276 47 -50 0
-276 -47 50 0
276 -271 47 50 -48 0
276 -271 -47 -50 -48 0
277 274 -45 0
277 -274 45 0
-277 274 45 0
-277 -274 -45 0
278 48 -46 0
278 -48 46 0
-278 48 46 0
-278 -48 -46 0
-279 274 0
-279 46 0
-279 45 -48 0
-279 -45 48 0
279 -274 45 48 -46 0
279 -274 -45 -48 -46 0
280 277 -43 0
280 -277 43 0
-280 277 43 0
-280 -277 -43 0
281 46 -44 0
281 -46 44 0
-281 46 44 0
-281 -46 -44 0
-282 277 0
-282 44 0
-282 43 -46 0
-282 -43 46 0
282 -277 43 46 -44 0
282 -277 -43 -46 -44 0
283 280 -41 0
283 -280 41 0
-283 280 41 0
-283 -280 -41 0
284 44 -42 0
284 -44 42 0
-284 44 42 0
-284 -44 -42 0
-285 280 0
-285 42 0
-285 41 -44 0
-285 -41 44 0
285 -280 41 44 -42 0
285 -280 -41 -44 -42 0
286 283 -39 0
286 -283 39 0
-286 283 39 0
-286 -283 -39 0
287 42 -40 0
287 -42 40 0
-287 42 40 0
-287 -42 -40 0
-288 283 0
-288 40 0
-288 39 -42 0
-288 -39 42 0
288 -283 39 42 -40 0
288 -283 -39 -42 -40 0
289 286 -37 0
289 -286 37 0
-289 286 37 0
-289 -286 -37 0
290 40 -38 0
290 -40 38 0
-290 40 38 0
-290 -40 -38 0
-291 286 0
-291 38 0
-291 37 -40 0
-291 -37 40 0
291 -286 37 40 -38 0
291 -286 -37 -40 -38 0
292 289 -35 0
292 -289 35 0
-292 289 35 0
-292 -289 -35 0
293 38 -36 0
293 -38 36 0
-293 38 36 0
-293 -38 -36 0
-294 289 0
-294 36 0
-294 35 -38 0
-294 -35 38 0
294 -289 35 38 -36 0
294 -289 -35 -38 -36 0
295 292 -33 0
295 -292 33 0
-295 292 33 0
-295 -292 -33 0
296 36 -34 0
296 -36 34 0
-296 36 34 0
-296 -36 -34 0
-297 292 0
-297 34 0
-297 33 -36 0
-297 -33 36 0
297 -292 33 36 -34 0
297 -292 -33 -36 -34 0
298 295 -31 0
298 -295 31 0
-298 295 31 0
-298 -295 -31 0
299 34 -32 0
299 -34 32 0
-299 34 32 0
-299 -34 -32 0
-300 295 0
-300 32 0
-300 31 -34 0
-300 -31 34 0
300 -295 31 34 -32 0
300 -295 -31 -34 -32 0
301 298 -29 0
301 -298 29 0
-301 298 29 0
-301 -298 -29 0
302 32 -30 0
302 -32 30 0
-302 32 30 0
-302 -32 -30 0
-303 298 0
-303 30 0
-303 29 -32 0
-303 -29 32 0
303 -298 29 32 -30 0
303 -298 -29 -32 -30 0
304 301 -27 0
304 -301 27 0
-304 301 27 0
-304 -301 -27 0
305 30 -28 0
305 -30 28 0
-305 30 28 0
-305 -30 -28 0
-306 301 0
-306 28 0
-306 27 -30 0
-306 -27 30 0
306 -301 27 30 -28 0
306 -301 -27 -30 -28 0
307 304 -25 0
307 -304 25 0
-307 304 25 0
-307 -304 -25 0
308 28 -26 0
308 -28 26 0
-308 28 26 0
-308 -28 -26 0
-309 304 0
-309 26 0
-309 25 -28 0
-309 -25 28 0
309 -304 25 28 -26 0
309 -304 -25 -28 -26 0
310 307 -23 0
310 -307 23 0
-310 307 23 0
-310 -307 -23 0
311 26 -24 0
311 -26 24 0
-311 26 24 0
-311 -26 -24 0
-312 307 0
-312 24 0
-312 23 -26 0
-312 -23 26 0
312 -307 23 26 -24 0
312 -307 -23 -26 -24 0
313 310 -21 0
313 -310 21 0
-313 310 21 0
-313 -310 -21 0
314 24 -22 0
314 -24 22 0
-314 24 22 0
-314 -24 -22 0
-315 310 0
-315 22 0
-315 21 -24 0
-315 -21 24 0
315 -310 21 24 -22 0
315 -310 -21 -24 -22 0
316 313 -19 0
316 -313 19 0
-316 313 19 0
-316 -313 -19 0
317 22 -20 0
317 -22 20 0
-317 22 20 0
-317 -22 -20 0
-318 313 0
-318 20 0
-318 19 -22 0
-318 -19 22 0
318 -313 19 22 -20 0
318 -313 -19 -22 -20 0
319 316 -17 0
319 -316 17 0
-319 316 17 0
-319 -316 -17 0
320 20 -18 0
320 -20 18 0
-320 20 18 0
-320 -20 -18 0
-321 316 0
-321 18 0
-321 17 -20 0
-321 -17 20 0
321 -316 17 20 -18 0
321 -316 -17 -20 -18 0
322 319 -15 0
322 -319 15 0
-322 319 15 0
-322 -319 -15 0
323 18 -16 0
323 -18 16 0
-323 18 16 0
-323 -18 -16 0
-324 319 0
-324 16 0
-324 15 -18 0
-324 -15 18 0
324 -319 15 18 -16 0
324 -319 -15 -18 -16 0
325 322 -13 0
325 -322 13 0
-325 322 13 0
-325 -322 -13 0
326 16 -14 0
326 -16 14 0
-326 16 14 0
-326 -16 -14 0
-327 322 0
-327 14 0
-327 13 -16 0
-327 -13 16 0
327 -322 13 16 -14 0
327 -322 -13 -16 -14 0
328 325 -11 0
328 -325 11 0
-328 325 11 0
-328 -325 -11 0
329 14 -12 0
329 -14 12 0
-329 14 12 0
-329 -14 -12 0
-330 325 0
-330 12 0
-330 11 -14 0
-330 -11 14 0
330 -325 11 14 -12 0
330 -325 -11 -14 -12 0
331 328 -9 0
331 -328 9 0
-331 328 9 0
-331 -328 -9 0
332 12 -10 0
332 -12 10 0
-332 12 10 0
-332 -12 -10 0
-333 328 0
-333 10 0
-333 9 -12 0
-333 -9 12 0
333 -328 9 12 -10 0
333 -328 -9 -12 -10 0
334 331 -7 0
334 -331 7 0
-334 331 7 0
-334 -331 -7 0
335 10 -8 0
335 -10 8 0
-335 10 8 0
-335 -10 -8 0
-336 331 0
-336 8 0
-336 7 -10 0
-336 -7 10 0
336 -331 7 10 -8 0
336 -331 -7 -10 -8 0
337 334 -5 0
337 -334 5 0
-337 334 5 0
-337 -334 -5 0
338 8 -6 0
338 -8 6 0
-338 8 6 0
-338 -8 -6 0
-339 334 0
-339 6 0
-339 5 -8 0
-339 -5 8 0
339 -334 5 8 -6 0
339 -334 -5 -8 -6 0
340 337 -3 0
340 -337 3 0
-340 337 3 0
-340 -337 -3 0
341 6 -4 0
341 -6 4 0
-341 6 4 0
-341 -6 -4 0
-342 337 0
-342 4 0
-342 3 -6 0
-342 -3 6 0
342 -337 3 6 -4 0
342 -337 -3 -6 -4 0
343 340 -1 0
343 -340 1 0
-343 340 1 0
-343 -340 -1 0
344 4 -2 0
344 -4 2 0
-344 4 2 0
-344 -4 -2 0
-345 340 0
-345 2 0
-345 1 -4 0
-345 -1 4 0
345 -340 1 4 -2 0
345 -340 -1 -4 -2 0
-343 0
-340 0
-344 0
-337 0
-341 0
-334 0
-338 0
-331 0
-335 0
-328 0
-332 0
-325 0
-329 0
-322 0
-326 0
-319 0
-323 0
-316 0
-320 0
-313 0
-317 0
-310 0
-314 0
-307 0
-311 0
-304 0
-308 0
-301 0
-305 0
-298 0
-302 0
-295 0
-299 0
-292 0
-296 0
-289 0
-293 0
-286 0
-290 0
-283 0
-287 0
-280 0
-284 0
-277 0
-281 0
-274 0
-278 0
-271 0
-275 0
-268 0
-272 0
-265 0
-269 0
-262 0
-266 0
-259 0
-263 0
-256 0
-260 0
-253 0
-257 0
-250 0
-254 0
-247 0
-251 0
-244 0
-248 0
-241 0
-245 0
-238 0
-242 0
-235 0
-239 0
-232 0
-236 0
-229 0
-233 0
-226 0
-230 0
-223 0
-227 0
-220 0
-224 0
-217 0
-221 0
-214 0
-218 0
-211 0
-215 0
-208 0
-212 0
-205 0
-209 0
-202 0
-206 0
-199 0
-203 0
-196 0
-200 0
-193 0
-197 0
-190 0
-194 0
-187 0
-191 0
-184 0
-188 0
-181 0
-185 0
-178 0
-182 0
-175 0
-179 0
-172 0
-176 0
-169 0
-173 0
-166 0
-170 0
-163 0
-167 0
-160 0
-164 0
-157 0
-161 0
-154 0
-158 0
-151 0
-155 0
-148 0
-152 0
-145 0
-149 0
-139 0
-146 0
